15,1	0,0	12,2	12,8	0,0	0,0	0,0	0,0	0,0	11,2
17,1	13,0	0,0	13,4	16,4	0,0	0,0	6,6	0,0	0,0
0,0	0,0	11,8	0,0	8,9	16,0	0,0	0,0	13,8	0,0
15,0	0,0	12,4	0,0	0,0	0,0	13,9	0,0	0,0	0,0
0,0	7,4	0,0	8,8	10,5	0,0	0,0	15,5	0,0	0,0
0,0	12,1	8,4	0,0	9,1	15,8	0,0	0,0	14,5	0,0
0,0	16,6	0,0	8,4	0,0	0,0	17,9	0,0	0,0	13,5
10,4	0,0	9,8	0,0	0,0	0,0	0,0	0,0	0,0	7,4
0,0	14,2	0,0	14,5	6,0	0,0	0,0	19,6	0,0	0,0
0,0	0,0	8,3	0,0	0,0	10,7	15,8	0,0	0,0	6,5
									
3,0	5,0	4,0	4,8	3,3	4,8	4,6	3,0	4,9	5,0
